100
128
3
31
61
2
2
61
23
11
7
41
16
13
3
1
4
5
27
19
3
34
15
11
13
3
1
4
45
3
29
4
1
26
4
2
3
31
18
4
12
11
3
23
11
17
7
10
7
10
46
8
27
9
39
10
7
5
14
27
9
9
10
10
61
47
23
15
41
25
46
13
25
29
26
2
11
22
46
17
41
1
31
29
14
2
44
15
53
64
64
38
50
41
58
18
64
64
20
19
5
64